param NUMSCEN :=1; 			#scenarios
param prob := 1;			#probability of scenario.
param pI := 4;				#Total component number
#param pT := 30;     		#Time horizon
#param ps := 2;				#Starting time
param pCPR :=				#PR cost
1 1
2 1
3 1
4 1
;
param pCCR :=				#CR cost
1 2
2 4
3 6
4 8
;
param pKesi :=
1 1
2 0
3 0 
4 0
;
param pd := 5;				#set up cost
